
n_res = 8;
rcap = [24, 29, 27, 28, 905, 870, 918, 836];
rtype = [1, 1, 1, 1, 2, 2, 2, 2];
n_tasks = 50;
modes =  [{1, 2, 3}, {4, 5, 6}, {7, 8, 9}, {10, 11, 12}, {13, 14, 15}, {16, 17, 18}, {19, 20, 21}, {22, 23, 24}, {25, 26, 27}, {28, 29, 30}, {31, 32, 33}, {34, 35, 36}, {37, 38, 39}, {40, 41, 42}, {43, 44, 45}, {46, 47, 48}, {49, 50, 51}, {52, 53, 54}, {55, 56, 57}, {58, 59, 60}, {61, 62, 63}, {64, 65, 66}, {67, 68, 69}, {70, 71, 72}, {73, 74, 75}, {76, 77, 78}, {79, 80, 81}, {82, 83, 84}, {85, 86, 87}, {88, 89, 90}, {91, 92, 93}, {94, 95, 96}, {97, 98, 99}, {100, 101, 102}, {103, 104, 105}, {106, 107, 108}, {109, 110, 111}, {112, 113, 114}, {115, 116, 117}, {118, 119, 120}, {121, 122, 123}, {124, 125, 126}, {127, 128, 129}, {130, 131, 132}, {133, 134, 135}, {136, 137, 138}, {139, 140, 141}, {142, 143, 144}, {145, 146, 147}, {148, 149, 150}];
succ =  [{20, 19, 15, 13, 12, 4}, {25, 20, 19, 17, 16, 7}, {26, 21, 20, 17, 16, 15, 13}, {28, 23, 21, 18, 16, 11}, {28, 27, 21, 15, 13, 11}, {34, 32, 30, 24, 23, 21, 20}, {37, 34, 32, 28, 26, 21, 15}, {40, 37, 32, 30, 28, 26, 24, 21}, {39, 37, 30, 25, 24, 22, 21}, {39, 27, 25, 22, 20}, {43, 40, 37, 34, 32, 29, 26, 24}, {40, 39, 35, 34, 33, 32, 31, 29, 28, 25}, {43, 40, 39, 37, 33, 32, 29, 24}, {43, 40, 39, 37, 33, 32, 28, 24}, {43, 42, 38, 35, 33, 31, 23}, {39, 37, 35, 34, 30, 27}, {42, 40, 39, 33, 32, 24}, {40, 38, 35, 32, 30, 26}, {39, 33, 28, 22}, {50, 38, 37, 36, 35, 31, 28}, {43, 42, 38, 33, 29}, {50, 40, 38, 34, 31}, {50, 47, 46, 45, 41, 40, 39}, {49, 38, 35, 31}, {50, 49, 48, 47, 46, 41, 38}, {50, 48, 47, 45, 42, 39}, {49, 46, 43, 31}, {49, 48, 47, 45, 42, 41}, {50, 49, 47, 41, 36}, {50, 31}, {48, 47, 45, 41}, {48, 47, 46, 41}, {50, 48, 47, 45}, {49, 48, 42}, {47, 46, 44}, {46, 45, 44}, {45, 42}, {45, 44}, {49, 44}, {48, 44}, {44}, {46}, {45}, {}, {}, {}, {}, {}, {}, {}];
n_opt = 150;
dur = [2, 11, 23, 4, 5, 16, 5, 7, 11, 2, 19, 26, 11, 21, 27, 11, 17, 19, 2, 10, 29, 4, 21, 22, 1, 3, 7, 4, 19, 25, 2, 12, 26, 2, 22, 30, 10, 18, 21, 20, 21, 22, 6, 9, 14, 15, 20, 30, 3, 9, 22, 7, 18, 24, 2, 22, 27, 3, 4, 29, 7, 20, 24, 5, 6, 16, 3, 4, 6, 10, 21, 22, 9, 10, 19, 5, 14, 19, 1, 7, 16, 23, 26, 27, 16, 20, 25, 12, 14, 26, 3, 6, 14, 1, 6, 21, 3, 20, 25, 15, 16, 23, 8, 15, 18, 1, 17, 20, 23, 25, 29, 15, 18, 30, 3, 16, 17, 9, 15, 18, 14, 21, 23, 14, 20, 28, 6, 10, 19, 25, 26, 28, 2, 7, 24, 16, 18, 28, 4, 13, 14, 12, 18, 30, 11, 20, 25, 5, 7, 10];
rreq = [|2, 1, 1, 4, 4, 3, 5, 4, 3, 3, 2, 2, 5, 4, 3, 1, 1, 1, 4, 4, 3, 5, 3, 3, 2, 1, 1, 4, 3, 3, 5, 4, 4, 1, 1, 1, 5, 5, 5, 2, 2, 1, 2, 1, 1, 5, 5, 5, 4, 4, 3, 2, 2, 2, 3, 3, 3, 5, 3, 1, 2, 2, 1, 3, 3, 3, 1, 1, 1, 3, 3, 2, 1, 1, 1, 1, 1, 1, 5, 4, 4, 3, 1, 1, 2, 2, 2, 3, 1, 1, 5, 4, 3, 3, 3, 3, 4, 3, 3, 2, 1, 1, 4, 4, 4, 5, 2, 1, 2, 2, 2, 2, 1, 1, 3, 3, 3, 1, 1, 1, 4, 4, 4, 5, 3, 2, 5, 4, 3, 3, 2, 1, 3, 3, 3, 4, 2, 2, 1, 1, 1, 5, 5, 5, 5, 5, 5, 4, 2, 1
 |4, 3, 3, 5, 4, 4, 1, 1, 1, 4, 3, 3, 4, 3, 3, 4, 4, 4, 2, 1, 1, 4, 4, 4, 1, 1, 1, 3, 3, 3, 3, 2, 2, 1, 1, 1, 5, 4, 3, 4, 3, 3, 1, 1, 1, 3, 3, 1, 4, 3, 2, 3, 3, 3, 4, 4, 4, 5, 4, 3, 4, 2, 2, 5, 4, 3, 2, 2, 2, 1, 1, 1, 4, 4, 2, 4, 3, 3, 5, 4, 4, 4, 4, 4, 5, 3, 3, 4, 2, 1, 2, 2, 2, 5, 4, 3, 5, 4, 3, 5, 4, 2, 4, 4, 4, 4, 4, 3, 1, 1, 1, 4, 3, 3, 1, 1, 1, 4, 3, 2, 1, 1, 1, 3, 2, 2, 3, 1, 1, 5, 4, 2, 2, 2, 2, 1, 1, 1, 4, 2, 1, 4, 2, 1, 2, 2, 2, 2, 2, 2
 |5, 3, 3, 3, 3, 3, 4, 2, 2, 4, 4, 4, 2, 2, 2, 4, 3, 3, 3, 3, 3, 3, 2, 2, 2, 2, 2, 1, 1, 1, 4, 4, 2, 5, 4, 4, 4, 2, 1, 5, 2, 2, 5, 4, 4, 5, 3, 3, 4, 4, 3, 3, 2, 2, 3, 1, 1, 3, 1, 1, 3, 2, 1, 2, 1, 1, 2, 2, 2, 4, 4, 4, 4, 2, 2, 5, 5, 5, 4, 4, 4, 4, 4, 2, 3, 2, 2, 5, 3, 2, 1, 1, 1, 1, 1, 1, 3, 2, 1, 2, 1, 1, 3, 3, 3, 2, 2, 2, 5, 5, 5, 1, 1, 1, 3, 2, 2, 2, 2, 2, 4, 4, 3, 2, 2, 2, 2, 2, 2, 3, 2, 1, 2, 2, 2, 5, 4, 3, 4, 2, 2, 5, 3, 1, 4, 2, 2, 3, 3, 3
 |5, 2, 1, 3, 3, 3, 3, 2, 2, 1, 1, 1, 3, 2, 2, 5, 5, 5, 3, 3, 2, 3, 3, 2, 5, 3, 3, 4, 3, 2, 4, 2, 1, 2, 2, 2, 4, 4, 4, 4, 4, 4, 4, 3, 2, 2, 1, 1, 4, 3, 3, 3, 3, 2, 3, 2, 1, 2, 2, 2, 4, 4, 3, 3, 3, 3, 4, 3, 2, 2, 2, 2, 4, 3, 3, 5, 4, 3, 5, 2, 2, 3, 2, 2, 3, 3, 1, 4, 3, 1, 2, 2, 1, 2, 2, 2, 4, 3, 3, 2, 2, 2, 3, 3, 2, 3, 2, 2, 4, 4, 4, 2, 1, 1, 4, 4, 3, 4, 4, 3, 1, 1, 1, 5, 5, 5, 4, 3, 3, 3, 2, 1, 3, 3, 3, 4, 3, 3, 5, 3, 2, 5, 4, 4, 5, 3, 3, 3, 2, 2
 |3, 2, 2, 16, 14, 6, 21, 21, 21, 27, 24, 21, 9, 7, 3, 14, 10, 9, 22, 14, 10, 24, 24, 22, 20, 17, 14, 22, 21, 16, 23, 22, 19, 27, 25, 23, 22, 14, 9, 4, 2, 2, 23, 22, 21, 19, 18, 17, 27, 14, 9, 25, 18, 16, 8, 6, 5, 18, 18, 18, 19, 19, 18, 22, 21, 18, 12, 11, 9, 29, 24, 23, 23, 20, 17, 19, 18, 13, 16, 11, 4, 15, 13, 9, 5, 4, 4, 3, 2, 1, 23, 19, 16, 29, 18, 17, 27, 16, 10, 23, 23, 23, 28, 26, 26, 21, 18, 16, 24, 24, 24, 30, 21, 15, 20, 13, 6, 27, 19, 13, 22, 19, 18, 26, 26, 26, 10, 10, 5, 27, 25, 20, 21, 19, 7, 14, 14, 3, 6, 4, 4, 20, 20, 8, 21, 21, 19, 25, 24, 22
 |27, 17, 10, 22, 19, 13, 15, 12, 11, 22, 22, 16, 26, 14, 11, 13, 11, 7, 14, 11, 6, 20, 18, 15, 28, 26, 24, 18, 15, 9, 3, 3, 2, 14, 12, 6, 5, 4, 4, 25, 22, 18, 30, 29, 28, 11, 8, 7, 7, 5, 4, 21, 20, 15, 10, 9, 7, 18, 17, 17, 16, 13, 9, 3, 2, 2, 17, 16, 16, 14, 13, 11, 14, 11, 9, 24, 13, 8, 10, 7, 6, 21, 20, 16, 22, 21, 21, 22, 21, 20, 26, 22, 17, 29, 25, 22, 24, 23, 23, 20, 15, 8, 14, 8, 6, 25, 22, 17, 23, 17, 10, 25, 25, 23, 28, 26, 21, 29, 21, 18, 26, 25, 24, 2, 2, 2, 21, 10, 8, 15, 15, 14, 25, 22, 18, 22, 20, 17, 9, 8, 6, 28, 20, 14, 25, 24, 21, 16, 15, 12
 |25, 24, 19, 28, 22, 15, 21, 13, 11, 25, 16, 11, 28, 28, 28, 19, 14, 13, 17, 13, 11, 15, 12, 8, 24, 22, 20, 7, 6, 4, 7, 6, 4, 23, 15, 7, 22, 20, 19, 12, 9, 7, 16, 13, 6, 26, 12, 9, 22, 14, 8, 16, 11, 9, 16, 14, 13, 21, 8, 6, 27, 27, 27, 17, 10, 5, 13, 13, 11, 13, 12, 11, 28, 27, 27, 23, 21, 20, 19, 11, 7, 25, 19, 13, 13, 9, 6, 21, 19, 16, 12, 12, 12, 23, 17, 12, 23, 21, 19, 22, 17, 12, 13, 7, 4, 18, 16, 14, 23, 23, 19, 27, 27, 26, 25, 20, 15, 12, 11, 9, 22, 22, 21, 14, 12, 11, 28, 21, 11, 14, 13, 12, 28, 27, 25, 30, 24, 16, 16, 16, 16, 14, 13, 12, 19, 15, 11, 28, 26, 24
 |12, 9, 2, 17, 9, 4, 22, 18, 14, 20, 15, 8, 25, 19, 14, 12, 6, 3, 17, 14, 8, 13, 10, 9, 24, 17, 17, 16, 14, 11, 15, 12, 11, 19, 17, 16, 30, 28, 28, 26, 20, 19, 19, 12, 7, 24, 13, 10, 25, 22, 20, 10, 9, 5, 15, 15, 15, 19, 17, 9, 9, 6, 6, 17, 17, 16, 28, 19, 10, 20, 15, 15, 5, 5, 5, 14, 11, 6, 27, 27, 24, 6, 5, 4, 27, 26, 26, 13, 13, 11, 21, 11, 7, 15, 6, 5, 9, 8, 4, 21, 14, 14, 14, 12, 12, 12, 10, 10, 20, 16, 15, 16, 14, 13, 14, 12, 10, 20, 18, 17, 13, 9, 6, 20, 16, 13, 21, 12, 12, 17, 16, 15, 20, 17, 10, 20, 19, 18, 24, 21, 15, 22, 19, 16, 21, 19, 16, 27, 26, 25|];